% Logging successfully configured
%%%mzn-stat: initTime=0.048005792
%%%mzn-stat: objective=857
%%%mzn-stat: nodes=2602
%%%mzn-stat: restarts=0
%%%mzn-stat: peakDepth=2497
%%%mzn-stat: solveTime=0.112475701
%%%mzn-stat: variables=3286
%%%mzn-stat: propagators=2849
%%%mzn-stat: failures=55
%%%mzn-stat: propagations=12492
%%%mzn-stat: nogoods=55
%%%mzn-stat: numAtomicConstraintsPropagated=0
%%%mzn-stat: allDifferentNumber1PropagationsTotal=620
%%%mzn-stat: allDifferentNumber1PropagationsThatFoundConflict=0
%%%mzn-stat: allDifferentNumber1PropagationsThatPruned=363
%%%mzn-stat: allDifferentNumber1TotalValuesPruned=2487
%%%mzn-stat: allDifferentNumber1TotalHallSetSizeConflict=0
%%%mzn-stat: allDifferentNumber1NumberOfConflicts=0
%%%mzn-stat: allDifferentNumber1MaxHallSetSizeConflict=0
%%%mzn-stat: allDifferentNumber1TotalPruningHallSetSize=15108
%%%mzn-stat: allDifferentNumber1NumberOfPruningExplanations=2487
%%%mzn-stat: allDifferentNumber1MaxPruningHallSetSize=41
%%%mzn-stat: allDifferentNumber1TotalFixedEdgesAtConflict=0
%%%mzn-stat: allDifferentNumber1TotalVarsInvolvedInPruning=2191
%%%mzn-stat: allDifferentNumber1MaxValuesPrunedFromSingleVar=4
%%%mzn-stat: allDifferentNumber1TotalSccSizeAtPruning=4746
%%%mzn-stat: allDifferentNumber1NumberOfSccPruningCalls=363
%%%mzn-stat: circuitNumber2PropagationsThatFoundConflict=47
%%%mzn-stat: circuitNumber2TotalFixedEdgesAtConflict=5752
%%%mzn-stat: circuitNumber2NumberOfConflicts=47
%%%mzn-stat: circuitNumber2PropagationsThatPruned=87
%%%mzn-stat: circuitNumber2PropagationsTotal=351
%%%mzn-stat: AverageConflictSize=8.254545454545454
%%%mzn-stat: NumUnitNogoodsLearned=0
%%%mzn-stat: AverageLearnedNogoodLength=50.56363636363636
%%%mzn-stat: AverageBacktrackAmount=0
%%%mzn-stat: AverageLbd=17.145454545454545
%%%mzn-stat: 2AutonomousSearchNumBackupCalled=2375
%%%mzn-stat: 2AutonomousSearchNumPredicatesRemoved=0
%%%mzn-stat: 2AutonomousSearchNumCalls=2376
%%%mzn-stat: 2AutonomousSearchNumPredicatesAdded=1372
%%%mzn-stat: 2AutonomousSearchAverageSizeOfHeap=0.5774410774410774
%%%mzn-stat: 2AutonomousSearchNumAssignedPredicatesEncountered=1372
%%%mzn-stat-end
maxleg = 857;
succ = array1d(1..150,[34, 10, 6, 37, 14, 5, 3, 26, 7, 4, 21, 28, 16, 2, 18, 9, 43, 17, 13, 22, 23, 29, 40, 15, 30, 25, 33, 11, 38, 31, 32, 41, 19, 24, 49, 46, 50, 12, 20, 42, 35, 44, 36, 47, 1, 8, 72, 60, 39, 51, 55, 27, 56, 61, 75, 58, 63, 59, 68, 45, 64, 48, 62, 74, 80, 71, 57, 78, 54, 67, 73, 82, 87, 66, 81, 52, 70, 85, 77, 53, 93, 88, 79, 65, 113, 95, 99, 102, 83, 89, 69, 91, 94, 96, 116, 84, 92, 104, 100, 105, 97, 110, 76, 109, 114, 103, 121, 129, 123, 122, 133, 119, 107, 111, 127, 131, 134, 130, 86, 106, 118, 125, 126, 120, 136, 143, 108, 112, 146, 148, 140, 101, 149, 135, 132, 117, 98, 137, 128, 145, 147, 144, 90, 115, 138, 141, 139, 150, 124, 142]);
% time elapsed: 12.73 s
----------
%%%mzn-stat: initTime=0.048005792
%%%mzn-stat: objective=472
%%%mzn-stat: nodes=5443
%%%mzn-stat: restarts=0
%%%mzn-stat: peakDepth=2520
%%%mzn-stat: solveTime=0.473100764
%%%mzn-stat: variables=3286
%%%mzn-stat: propagators=2849
%%%mzn-stat: failures=207
%%%mzn-stat: propagations=24175
%%%mzn-stat: nogoods=207
%%%mzn-stat: numAtomicConstraintsPropagated=0
%%%mzn-stat: allDifferentNumber1PropagationsTotal=2004
%%%mzn-stat: allDifferentNumber1PropagationsThatFoundConflict=2
%%%mzn-stat: allDifferentNumber1PropagationsThatPruned=1226
%%%mzn-stat: allDifferentNumber1TotalValuesPruned=6493
%%%mzn-stat: allDifferentNumber1TotalHallSetSizeConflict=4
%%%mzn-stat: allDifferentNumber1NumberOfConflicts=2
%%%mzn-stat: allDifferentNumber1MaxHallSetSizeConflict=2
%%%mzn-stat: allDifferentNumber1TotalPruningHallSetSize=33589
%%%mzn-stat: allDifferentNumber1NumberOfPruningExplanations=6493
%%%mzn-stat: allDifferentNumber1MaxPruningHallSetSize=41
%%%mzn-stat: allDifferentNumber1TotalFixedEdgesAtConflict=242
%%%mzn-stat: allDifferentNumber1TotalVarsInvolvedInPruning=5615
%%%mzn-stat: allDifferentNumber1MaxValuesPrunedFromSingleVar=5
%%%mzn-stat: allDifferentNumber1TotalSccSizeAtPruning=16887
%%%mzn-stat: allDifferentNumber1NumberOfSccPruningCalls=1226
%%%mzn-stat: circuitNumber2PropagationsThatFoundConflict=193
%%%mzn-stat: circuitNumber2TotalFixedEdgesAtConflict=23704
%%%mzn-stat: circuitNumber2NumberOfConflicts=193
%%%mzn-stat: circuitNumber2PropagationsThatPruned=312
%%%mzn-stat: circuitNumber2PropagationsTotal=1206
%%%mzn-stat: AverageConflictSize=30.41062801932367
%%%mzn-stat: NumUnitNogoodsLearned=0
%%%mzn-stat: AverageLearnedNogoodLength=84.33333333333333
%%%mzn-stat: AverageBacktrackAmount=0
%%%mzn-stat: AverageLbd=45.52173913043478
%%%mzn-stat: 2AutonomousSearchNumBackupCalled=4775
%%%mzn-stat: 2AutonomousSearchNumPredicatesRemoved=0
%%%mzn-stat: 2AutonomousSearchNumCalls=4777
%%%mzn-stat: 2AutonomousSearchNumPredicatesAdded=3836
%%%mzn-stat: 2AutonomousSearchAverageSizeOfHeap=0.8953317981997069
%%%mzn-stat: 2AutonomousSearchNumAssignedPredicatesEncountered=4277
%%%mzn-stat-end
maxleg = 472;
succ = array1d(1..150,[34, 10, 6, 37, 14, 5, 3, 26, 7, 4, 21, 28, 16, 2, 18, 9, 43, 17, 13, 22, 23, 29, 40, 15, 30, 25, 33, 53, 38, 31, 32, 41, 19, 24, 49, 46, 50, 12, 20, 42, 35, 44, 36, 47, 1, 8, 72, 60, 39, 51, 55, 27, 56, 11, 75, 58, 63, 59, 68, 45, 54, 48, 62, 61, 80, 71, 57, 78, 91, 67, 73, 82, 87, 64, 81, 52, 70, 85, 77, 84, 93, 88, 79, 96, 113, 95, 99, 102, 83, 89, 92, 97, 65, 108, 116, 94, 101, 104, 74, 105, 117, 111, 76, 109, 107, 103, 121, 127, 123, 133, 149, 119, 100, 66, 144, 131, 125, 148, 86, 106, 118, 110, 137, 120, 136, 143, 115, 112, 146, 141, 140, 134, 114, 135, 69, 122, 132, 98, 126, 145, 147, 129, 90, 142, 138, 139, 128, 150, 124, 130]);
% time elapsed: 13.06 s
----------
%%%mzn-stat: initTime=0.048005792
%%%mzn-stat: objective=319
%%%mzn-stat: nodes=7964
%%%mzn-stat: restarts=0
%%%mzn-stat: peakDepth=2520
%%%mzn-stat: solveTime=0.527553013
%%%mzn-stat: variables=3286
%%%mzn-stat: propagators=2849
%%%mzn-stat: failures=209
%%%mzn-stat: propagations=29061
%%%mzn-stat: nogoods=209
%%%mzn-stat: numAtomicConstraintsPropagated=0
%%%mzn-stat: allDifferentNumber1PropagationsTotal=2255
%%%mzn-stat: allDifferentNumber1PropagationsThatFoundConflict=2
%%%mzn-stat: allDifferentNumber1PropagationsThatPruned=1354
%%%mzn-stat: allDifferentNumber1TotalValuesPruned=7717
%%%mzn-stat: allDifferentNumber1TotalHallSetSizeConflict=4
%%%mzn-stat: allDifferentNumber1NumberOfConflicts=2
%%%mzn-stat: allDifferentNumber1MaxHallSetSizeConflict=2
%%%mzn-stat: allDifferentNumber1TotalPruningHallSetSize=35321
%%%mzn-stat: allDifferentNumber1NumberOfPruningExplanations=7717
%%%mzn-stat: allDifferentNumber1MaxPruningHallSetSize=41
%%%mzn-stat: allDifferentNumber1TotalFixedEdgesAtConflict=242
%%%mzn-stat: allDifferentNumber1TotalVarsInvolvedInPruning=6824
%%%mzn-stat: allDifferentNumber1MaxValuesPrunedFromSingleVar=5
%%%mzn-stat: allDifferentNumber1TotalSccSizeAtPruning=17162
%%%mzn-stat: allDifferentNumber1NumberOfSccPruningCalls=1354
%%%mzn-stat: circuitNumber2PropagationsThatFoundConflict=195
%%%mzn-stat: circuitNumber2TotalFixedEdgesAtConflict=23998
%%%mzn-stat: circuitNumber2NumberOfConflicts=195
%%%mzn-stat: circuitNumber2PropagationsThatPruned=317
%%%mzn-stat: circuitNumber2PropagationsTotal=1334
%%%mzn-stat: AverageConflictSize=31.526315789473685
%%%mzn-stat: NumUnitNogoodsLearned=0
%%%mzn-stat: AverageLearnedNogoodLength=84.82296650717703
%%%mzn-stat: AverageBacktrackAmount=0
%%%mzn-stat: AverageLbd=46.2200956937799
%%%mzn-stat: 2AutonomousSearchNumBackupCalled=7173
%%%mzn-stat: 2AutonomousSearchNumPredicatesRemoved=0
%%%mzn-stat: 2AutonomousSearchNumCalls=7176
%%%mzn-stat: 2AutonomousSearchNumPredicatesAdded=4246
%%%mzn-stat: 2AutonomousSearchAverageSizeOfHeap=1.0215997770345597
%%%mzn-stat: 2AutonomousSearchNumAssignedPredicatesEncountered=7331
%%%mzn-stat-end
maxleg = 319;
succ = array1d(1..150,[34, 10, 6, 37, 14, 5, 3, 26, 7, 4, 21, 28, 16, 2, 18, 9, 43, 17, 13, 22, 23, 29, 40, 15, 30, 25, 33, 53, 38, 31, 32, 41, 19, 24, 49, 46, 50, 12, 20, 42, 35, 44, 36, 47, 1, 8, 72, 60, 39, 51, 55, 27, 56, 11, 75, 58, 63, 59, 68, 45, 54, 48, 62, 61, 80, 71, 57, 78, 91, 67, 73, 82, 87, 64, 81, 52, 70, 85, 77, 84, 93, 88, 79, 96, 113, 95, 99, 102, 83, 89, 92, 97, 65, 108, 116, 94, 101, 104, 74, 105, 117, 111, 76, 109, 107, 103, 121, 127, 123, 133, 149, 119, 131, 66, 144, 112, 125, 130, 128, 106, 118, 110, 137, 120, 136, 143, 115, 139, 150, 141, 140, 134, 114, 135, 69, 122, 132, 98, 126, 145, 146, 129, 90, 142, 138, 147, 86, 100, 124, 148]);
% time elapsed: 13.13 s
----------
%%%mzn-stat: initTime=0.048005792
%%%mzn-stat: objective=312
%%%mzn-stat: nodes=10475
%%%mzn-stat: restarts=0
%%%mzn-stat: peakDepth=2520
%%%mzn-stat: solveTime=0.582525266
%%%mzn-stat: variables=3286
%%%mzn-stat: propagators=2849
%%%mzn-stat: failures=211
%%%mzn-stat: propagations=33959
%%%mzn-stat: nogoods=211
%%%mzn-stat: numAtomicConstraintsPropagated=0
%%%mzn-stat: allDifferentNumber1PropagationsTotal=2504
%%%mzn-stat: allDifferentNumber1PropagationsThatFoundConflict=2
%%%mzn-stat: allDifferentNumber1PropagationsThatPruned=1481
%%%mzn-stat: allDifferentNumber1TotalValuesPruned=8937
%%%mzn-stat: allDifferentNumber1TotalHallSetSizeConflict=4
%%%mzn-stat: allDifferentNumber1NumberOfConflicts=2
%%%mzn-stat: allDifferentNumber1MaxHallSetSizeConflict=2
%%%mzn-stat: allDifferentNumber1TotalPruningHallSetSize=37211
%%%mzn-stat: allDifferentNumber1NumberOfPruningExplanations=8937
%%%mzn-stat: allDifferentNumber1MaxPruningHallSetSize=41
%%%mzn-stat: allDifferentNumber1TotalFixedEdgesAtConflict=242
%%%mzn-stat: allDifferentNumber1TotalVarsInvolvedInPruning=8022
%%%mzn-stat: allDifferentNumber1MaxValuesPrunedFromSingleVar=5
%%%mzn-stat: allDifferentNumber1TotalSccSizeAtPruning=17404
%%%mzn-stat: allDifferentNumber1NumberOfSccPruningCalls=1481
%%%mzn-stat: circuitNumber2PropagationsThatFoundConflict=197
%%%mzn-stat: circuitNumber2TotalFixedEdgesAtConflict=24292
%%%mzn-stat: circuitNumber2NumberOfConflicts=197
%%%mzn-stat: circuitNumber2PropagationsThatPruned=322
%%%mzn-stat: circuitNumber2PropagationsTotal=1461
%%%mzn-stat: AverageConflictSize=32.62085308056872
%%%mzn-stat: NumUnitNogoodsLearned=0
%%%mzn-stat: AverageLearnedNogoodLength=85.3175355450237
%%%mzn-stat: AverageBacktrackAmount=0
%%%mzn-stat: AverageLbd=46.8957345971564
%%%mzn-stat: 2AutonomousSearchNumBackupCalled=9562
%%%mzn-stat: 2AutonomousSearchNumPredicatesRemoved=0
%%%mzn-stat: 2AutonomousSearchNumCalls=9566
%%%mzn-stat: 2AutonomousSearchNumPredicatesAdded=4658
%%%mzn-stat: 2AutonomousSearchAverageSizeOfHeap=1.0860338699560945
%%%mzn-stat: 2AutonomousSearchNumAssignedPredicatesEncountered=10389
%%%mzn-stat-end
maxleg = 312;
succ = array1d(1..150,[34, 10, 6, 37, 14, 5, 3, 26, 7, 4, 21, 28, 16, 2, 18, 9, 43, 17, 13, 22, 23, 29, 40, 15, 30, 25, 33, 53, 38, 31, 32, 41, 19, 24, 49, 46, 50, 12, 20, 42, 35, 44, 36, 47, 1, 8, 72, 60, 39, 51, 55, 27, 56, 11, 75, 58, 63, 59, 68, 45, 54, 48, 62, 61, 80, 71, 57, 78, 91, 67, 73, 82, 87, 64, 81, 52, 70, 85, 77, 84, 93, 88, 79, 96, 113, 95, 99, 102, 83, 89, 92, 97, 94, 108, 116, 127, 101, 104, 74, 105, 117, 111, 76, 109, 107, 65, 121, 129, 123, 133, 149, 119, 131, 66, 144, 112, 125, 130, 128, 106, 118, 110, 137, 120, 136, 143, 115, 139, 150, 141, 140, 134, 114, 135, 69, 122, 132, 98, 126, 145, 146, 103, 90, 142, 138, 147, 86, 100, 124, 148]);
% time elapsed: 13.19 s
----------
%%%mzn-stat: initTime=0.048005792
%%%mzn-stat: objective=288
%%%mzn-stat: nodes=12933
%%%mzn-stat: restarts=0
%%%mzn-stat: peakDepth=2520
%%%mzn-stat: solveTime=0.640597743
%%%mzn-stat: variables=3286
%%%mzn-stat: propagators=2849
%%%mzn-stat: failures=216
%%%mzn-stat: propagations=39075
%%%mzn-stat: nogoods=216
%%%mzn-stat: numAtomicConstraintsPropagated=0
%%%mzn-stat: allDifferentNumber1PropagationsTotal=2788
%%%mzn-stat: allDifferentNumber1PropagationsThatFoundConflict=2
%%%mzn-stat: allDifferentNumber1PropagationsThatPruned=1627
%%%mzn-stat: allDifferentNumber1TotalValuesPruned=10221
%%%mzn-stat: allDifferentNumber1TotalHallSetSizeConflict=4
%%%mzn-stat: allDifferentNumber1NumberOfConflicts=2
%%%mzn-stat: allDifferentNumber1MaxHallSetSizeConflict=2
%%%mzn-stat: allDifferentNumber1TotalPruningHallSetSize=39255
%%%mzn-stat: allDifferentNumber1NumberOfPruningExplanations=10221
%%%mzn-stat: allDifferentNumber1MaxPruningHallSetSize=41
%%%mzn-stat: allDifferentNumber1TotalFixedEdgesAtConflict=242
%%%mzn-stat: allDifferentNumber1TotalVarsInvolvedInPruning=9270
%%%mzn-stat: allDifferentNumber1MaxValuesPrunedFromSingleVar=5
%%%mzn-stat: allDifferentNumber1TotalSccSizeAtPruning=17766
%%%mzn-stat: allDifferentNumber1NumberOfSccPruningCalls=1627
%%%mzn-stat: circuitNumber2PropagationsThatFoundConflict=202
%%%mzn-stat: circuitNumber2TotalFixedEdgesAtConflict=24994
%%%mzn-stat: circuitNumber2NumberOfConflicts=202
%%%mzn-stat: circuitNumber2PropagationsThatPruned=328
%%%mzn-stat: circuitNumber2PropagationsTotal=1607
%%%mzn-stat: AverageConflictSize=33.31018518518518
%%%mzn-stat: NumUnitNogoodsLearned=0
%%%mzn-stat: AverageLearnedNogoodLength=85.13425925925925
%%%mzn-stat: AverageBacktrackAmount=0
%%%mzn-stat: AverageLbd=47.10648148148148
%%%mzn-stat: 2AutonomousSearchNumBackupCalled=11882
%%%mzn-stat: 2AutonomousSearchNumPredicatesRemoved=0
%%%mzn-stat: 2AutonomousSearchNumCalls=11887
%%%mzn-stat: 2AutonomousSearchNumPredicatesAdded=5324
%%%mzn-stat: 2AutonomousSearchAverageSizeOfHeap=1.1343484478842434
%%%mzn-stat: 2AutonomousSearchNumAssignedPredicatesEncountered=13484
%%%mzn-stat-end
maxleg = 288;
succ = array1d(1..150,[34, 10, 6, 37, 14, 5, 3, 26, 7, 4, 21, 28, 16, 2, 18, 9, 43, 17, 13, 22, 23, 29, 40, 15, 30, 25, 33, 53, 38, 31, 32, 41, 19, 24, 49, 46, 50, 12, 20, 42, 35, 44, 36, 47, 1, 8, 72, 60, 39, 51, 55, 27, 56, 11, 75, 58, 63, 59, 68, 45, 54, 48, 62, 61, 80, 71, 57, 78, 91, 67, 73, 82, 87, 64, 81, 52, 70, 85, 77, 84, 93, 88, 79, 96, 113, 95, 99, 102, 83, 89, 92, 97, 94, 108, 116, 127, 101, 104, 74, 105, 117, 111, 76, 109, 107, 65, 121, 129, 137, 133, 149, 119, 131, 66, 144, 112, 125, 130, 128, 106, 118, 110, 138, 120, 136, 143, 115, 139, 150, 141, 140, 134, 114, 135, 69, 122, 132, 98, 126, 145, 146, 103, 90, 142, 123, 147, 86, 100, 124, 148]);
% time elapsed: 13.26 s
----------
%%%mzn-stat: initTime=0.048005792
%%%mzn-stat: objective=274
%%%mzn-stat: nodes=15323
%%%mzn-stat: restarts=0
%%%mzn-stat: peakDepth=2520
%%%mzn-stat: solveTime=0.696548886
%%%mzn-stat: variables=3286
%%%mzn-stat: propagators=2849
%%%mzn-stat: failures=218
%%%mzn-stat: propagations=43947
%%%mzn-stat: nogoods=218
%%%mzn-stat: numAtomicConstraintsPropagated=0
%%%mzn-stat: allDifferentNumber1PropagationsTotal=3034
%%%mzn-stat: allDifferentNumber1PropagationsThatFoundConflict=2
%%%mzn-stat: allDifferentNumber1PropagationsThatPruned=1753
%%%mzn-stat: allDifferentNumber1TotalValuesPruned=11429
%%%mzn-stat: allDifferentNumber1TotalHallSetSizeConflict=4
%%%mzn-stat: allDifferentNumber1NumberOfConflicts=2
%%%mzn-stat: allDifferentNumber1MaxHallSetSizeConflict=2
%%%mzn-stat: allDifferentNumber1TotalPruningHallSetSize=41137
%%%mzn-stat: allDifferentNumber1NumberOfPruningExplanations=11429
%%%mzn-stat: allDifferentNumber1MaxPruningHallSetSize=41
%%%mzn-stat: allDifferentNumber1TotalFixedEdgesAtConflict=242
%%%mzn-stat: allDifferentNumber1TotalVarsInvolvedInPruning=10456
%%%mzn-stat: allDifferentNumber1MaxValuesPrunedFromSingleVar=5
%%%mzn-stat: allDifferentNumber1TotalSccSizeAtPruning=18015
%%%mzn-stat: allDifferentNumber1NumberOfSccPruningCalls=1753
%%%mzn-stat: circuitNumber2PropagationsThatFoundConflict=204
%%%mzn-stat: circuitNumber2TotalFixedEdgesAtConflict=25288
%%%mzn-stat: circuitNumber2NumberOfConflicts=204
%%%mzn-stat: circuitNumber2PropagationsThatPruned=333
%%%mzn-stat: circuitNumber2PropagationsTotal=1733
%%%mzn-stat: AverageConflictSize=34.35321100917431
%%%mzn-stat: NumUnitNogoodsLearned=0
%%%mzn-stat: AverageLearnedNogoodLength=85.61926605504587
%%%mzn-stat: AverageBacktrackAmount=0
%%%mzn-stat: AverageLbd=47.73394495412844
%%%mzn-stat: 2AutonomousSearchNumBackupCalled=14152
%%%mzn-stat: 2AutonomousSearchNumPredicatesRemoved=0
%%%mzn-stat: 2AutonomousSearchNumCalls=14158
%%%mzn-stat: 2AutonomousSearchNumPredicatesAdded=5737
%%%mzn-stat: 2AutonomousSearchAverageSizeOfHeap=1.1711399915242267
%%%mzn-stat: 2AutonomousSearchNumAssignedPredicatesEncountered=16581
%%%mzn-stat-end
maxleg = 274;
succ = array1d(1..150,[34, 10, 6, 37, 14, 5, 3, 26, 7, 4, 21, 28, 16, 2, 18, 9, 43, 17, 13, 22, 23, 29, 40, 15, 30, 25, 33, 53, 38, 31, 32, 41, 19, 24, 49, 46, 50, 12, 20, 42, 35, 44, 36, 47, 1, 8, 72, 60, 39, 51, 55, 27, 56, 11, 75, 58, 63, 59, 68, 45, 54, 48, 62, 61, 80, 71, 57, 78, 91, 67, 73, 82, 87, 64, 81, 52, 70, 85, 77, 84, 93, 88, 79, 96, 113, 95, 99, 102, 83, 89, 92, 97, 94, 108, 116, 127, 101, 104, 74, 105, 117, 111, 76, 109, 107, 65, 121, 129, 137, 133, 149, 119, 131, 66, 144, 112, 136, 130, 128, 106, 118, 110, 138, 120, 122, 143, 115, 139, 150, 141, 140, 134, 114, 135, 69, 125, 132, 98, 126, 145, 146, 103, 90, 142, 123, 147, 86, 100, 124, 148]);
% time elapsed: 13.33 s
----------
%%%mzn-stat: initTime=0.048005792
%%%mzn-stat: objective=271
%%%mzn-stat: nodes=499283
%%%mzn-stat: restarts=0
%%%mzn-stat: peakDepth=2520
%%%mzn-stat: solveTime=1031.736108339
%%%mzn-stat: variables=3286
%%%mzn-stat: propagators=2849
%%%mzn-stat: failures=324695
%%%mzn-stat: propagations=19281384
%%%mzn-stat: nogoods=324695
%%%mzn-stat: numAtomicConstraintsPropagated=0
%%%mzn-stat: allDifferentNumber1PropagationsTotal=2289935
%%%mzn-stat: allDifferentNumber1PropagationsThatFoundConflict=15218
%%%mzn-stat: allDifferentNumber1PropagationsThatPruned=1502610
%%%mzn-stat: allDifferentNumber1TotalValuesPruned=5316366
%%%mzn-stat: allDifferentNumber1TotalHallSetSizeConflict=43612
%%%mzn-stat: allDifferentNumber1NumberOfConflicts=15218
%%%mzn-stat: allDifferentNumber1MaxHallSetSizeConflict=15
%%%mzn-stat: allDifferentNumber1TotalPruningHallSetSize=19199399
%%%mzn-stat: allDifferentNumber1NumberOfPruningExplanations=5316366
%%%mzn-stat: allDifferentNumber1MaxPruningHallSetSize=41
%%%mzn-stat: allDifferentNumber1TotalFixedEdgesAtConflict=2118349
%%%mzn-stat: allDifferentNumber1TotalVarsInvolvedInPruning=4549247
%%%mzn-stat: allDifferentNumber1MaxValuesPrunedFromSingleVar=7
%%%mzn-stat: allDifferentNumber1TotalSccSizeAtPruning=12388861
%%%mzn-stat: allDifferentNumber1NumberOfSccPruningCalls=1502610
%%%mzn-stat: circuitNumber2PropagationsThatFoundConflict=247615
%%%mzn-stat: circuitNumber2TotalFixedEdgesAtConflict=34502275
%%%mzn-stat: circuitNumber2NumberOfConflicts=247615
%%%mzn-stat: circuitNumber2PropagationsThatPruned=340075
%%%mzn-stat: circuitNumber2PropagationsTotal=1403947
%%%mzn-stat: AverageConflictSize=59.79829378339672
%%%mzn-stat: NumUnitNogoodsLearned=0
%%%mzn-stat: AverageLearnedNogoodLength=97.03310491384222
%%%mzn-stat: AverageBacktrackAmount=0
%%%mzn-stat: AverageLbd=62.20277183202698
%%%mzn-stat: 2AutonomousSearchNumBackupCalled=16501
%%%mzn-stat: 2AutonomousSearchNumPredicatesRemoved=0
%%%mzn-stat: 2AutonomousSearchNumCalls=16508
%%%mzn-stat: 2AutonomousSearchNumPredicatesAdded=8938
%%%mzn-stat: 2AutonomousSearchAverageSizeOfHeap=1.2698085776593167
%%%mzn-stat: 2AutonomousSearchNumAssignedPredicatesEncountered=20962
%%%mzn-stat-end
maxleg = 271;
succ = array1d(1..150,[34, 10, 6, 37, 14, 5, 3, 26, 7, 4, 21, 28, 16, 2, 18, 19, 43, 17, 33, 22, 23, 29, 40, 15, 13, 25, 52, 53, 38, 31, 8, 30, 27, 24, 41, 46, 50, 12, 20, 9, 32, 11, 36, 42, 1, 48, 44, 60, 35, 51, 55, 76, 49, 61, 75, 39, 63, 56, 58, 57, 64, 45, 79, 74, 80, 71, 70, 59, 54, 77, 73, 47, 87, 66, 81, 93, 112, 68, 67, 84, 94, 72, 62, 96, 78, 95, 99, 82, 83, 89, 69, 91, 108, 115, 116, 129, 92, 104, 100, 107, 97, 88, 106, 109, 114, 120, 113, 65, 123, 122, 102, 119, 131, 111, 127, 143, 134, 121, 86, 124, 105, 125, 145, 149, 136, 139, 144, 85, 150, 118, 140, 137, 110, 135, 132, 117, 138, 98, 146, 90, 147, 103, 126, 142, 101, 141, 128, 130, 133, 148]);
% time elapsed: 1044.39 s
----------
%%%mzn-stat: initTime=0.048005792
%%%mzn-stat: objective=271
%%%mzn-stat: nodes=798107
%%%mzn-stat: restarts=0
%%%mzn-stat: peakDepth=2520
%%%mzn-stat: solveTime=1787.952836276
%%%mzn-stat: variables=3286
%%%mzn-stat: propagators=2849
%%%mzn-stat: failures=541770
%%%mzn-stat: propagations=32140360
%%%mzn-stat: nogoods=541770
%%%mzn-stat: numAtomicConstraintsPropagated=0
%%%mzn-stat: allDifferentNumber1PropagationsTotal=3787796
%%%mzn-stat: allDifferentNumber1PropagationsThatFoundConflict=30784
%%%mzn-stat: allDifferentNumber1PropagationsThatPruned=2480860
%%%mzn-stat: allDifferentNumber1TotalValuesPruned=8791928
%%%mzn-stat: allDifferentNumber1TotalHallSetSizeConflict=80623
%%%mzn-stat: allDifferentNumber1NumberOfConflicts=30784
%%%mzn-stat: allDifferentNumber1MaxHallSetSizeConflict=15
%%%mzn-stat: allDifferentNumber1TotalPruningHallSetSize=32181372
%%%mzn-stat: allDifferentNumber1NumberOfPruningExplanations=8791928
%%%mzn-stat: allDifferentNumber1MaxPruningHallSetSize=41
%%%mzn-stat: allDifferentNumber1TotalFixedEdgesAtConflict=4286555
%%%mzn-stat: allDifferentNumber1TotalVarsInvolvedInPruning=7499383
%%%mzn-stat: allDifferentNumber1MaxValuesPrunedFromSingleVar=7
%%%mzn-stat: allDifferentNumber1TotalSccSizeAtPruning=20722649
%%%mzn-stat: allDifferentNumber1NumberOfSccPruningCalls=2480860
%%%mzn-stat: circuitNumber2PropagationsThatFoundConflict=408431
%%%mzn-stat: circuitNumber2TotalFixedEdgesAtConflict=56847876
%%%mzn-stat: circuitNumber2NumberOfConflicts=408431
%%%mzn-stat: circuitNumber2PropagationsThatPruned=562923
%%%mzn-stat: circuitNumber2PropagationsTotal=2321425
%%%mzn-stat: AverageConflictSize=58.73920667441904
%%%mzn-stat: NumUnitNogoodsLearned=0
%%%mzn-stat: AverageLearnedNogoodLength=97.6625505288222
%%%mzn-stat: AverageBacktrackAmount=0
%%%mzn-stat: AverageLbd=62.53016224597154
%%%mzn-stat: 2AutonomousSearchNumBackupCalled=16501
%%%mzn-stat: 2AutonomousSearchNumPredicatesRemoved=0
%%%mzn-stat: 2AutonomousSearchNumCalls=16508
%%%mzn-stat: 2AutonomousSearchNumPredicatesAdded=11900
%%%mzn-stat: 2AutonomousSearchAverageSizeOfHeap=1.2698085776593167
%%%mzn-stat: 2AutonomousSearchNumAssignedPredicatesEncountered=20962
%%%mzn-stat-end
